GLPSOL: GLPK LP/MIP Solver, v4.55
Parameter(s) specified in the command line:
 -m tmp.mod
Reading model section from tmp.mod...
Reading data section from tmp.mod...
2091 lines were read
Generating obj...
Generating kirhoff...
Generating init_charge...
Generating batt_size...
Model has been successfully generated
GLPK Simplex Optimizer, v4.55
3233 rows, 3239 columns, 6744 non-zeros
Preprocessing...
1869 rows, 3125 columns, 6524 non-zeros
Scaling...
 A: min|aij| =  1.000e+00  max|aij| =  1.000e+00  ratio =  1.000e+00
Problem data seem to be well scaled
Constructing initial basis...
Size of triangular part is 1429
      0: obj =   0.000000000e+00  infeas =  9.540e+02 (440)
*   342: obj =   1.420000000e+02  infeas =  0.000e+00 (371)
*   402: obj =   1.050000000e+02  infeas =  0.000e+00 (367)
OPTIMAL LP SOLUTION FOUND
Time used:   0.0 secs
Memory used: 7.1 Mb (7480530 bytes)
#OUTPUT:
105
-21 -4 -1 -27 0 0 0 -3 -21 -22 0 0 0 0 -66 0 0 0 -15 0 0 -18 0 0 0 0 0 -18 0 0 0 0 -66 0 -67 0 -22 0 0 -21 0 0 1 0 0 0 0 0 0 0 0 0 0 0 0 0 0 -3 0 0 0 0 0 0 0 0 0 0 21 0 0 0 0 0 0 0 0 0 0 0 0 0 0 0 0 0 0 0 0 0 0 0 0 0 0 0 0 0 0 0 0 0 0 0 0 0 0 0 0 0 0 0 0 0 0 0 -1 0 0 0 0 -15 0 0 0 0 0 0 0 0 0 0 0 0 0 0 0 0 0 0 0 0 0 0 0 0 0 0 0 0 0 0 0 0 0 0 0 0 0 0 0 0 0 -18 -3 0 0 0 0 0 0 0 0 0 0 0 0 1 0 0 0 0 0 0 0 0 0 0 0 0 0 0 0 0 0 0 0 0 0 0 0 0 0 0 0 0 0 0 0 0 0 0 0 0 0 0 0 0 0 0 0 0 0 0 0 0 0 0 0 0 0 0 0 0 0 0 0 0 0 0 0 0 0 0 0 0 0 0 0 0 0 0 0 0 0 0 0 0 0 0 0 0 0 0 0 0 0 0 0 0 0 0 0 0 0 0 0 0 0 0 0 0 0 0 0 0 0 0 0 0 0 
-14 2 -4 -41 10 -12 0 6 0 0 0 0 2 0 -48 0 6 0 -5 0 0 -2 2 0 0 3 2 -2 0 0 -5 0 0 -3 0 0 0 0 -2 0 0 0 0 0 -1 -1 0 0 0 0 0 0 0 0 0 0 0 0 0 0 -29 -12 5 0 0 0 4 -43 0 0 0 -23 0 0 -2 0 0 0 0 0 0 0 0 0 0 0 0 0 0 0 5 0 0 0 2 0 0 0 0 0 4 0 0 0 0 0 0 0 0 0 0 -2 0 0 0 1 0 0 0 0 0 0 0 -5 -37 0 25 0 0 0 0 -2 0 0 0 2 0 -1 0 4 6 0 0 0 0 2 0 0 0 0 0 0 0 -1 0 0 -3 0 0 2 0 0 0 -2 0 0 0 0 0 0 0 -2 0 0 -4 0 0 0 0 5 -23 0 0 0 -2 0 -4 -6 0 0 1 3 0 -2 0 0 0 0 0 0 0 0 0 0 0 0 0 0 0 0 0 0 0 0 0 0 0 0 0 0 0 0 0 0 0 0 0 0 0 0 0 0 0 0 0 0 0 0 0 0 0 0 0 0 0 0 0 0 0 0 0 0 0 0 0 0 0 0 0 0 0 0 0 0 0 0 0 0 0 0 0 0 0 0 0 0 0 0 0 0 0 0 0 0 0 0 0 0 0 0 0 
0 -7 -7 -29 -6 0 0 0 0 -23 0 0 0 0 -3 0 0 0 -1 0 0 -2 0 0 0 0 0 -2 2 0 0 0 -3 -6 0 0 -23 0 0 0 0 0 -1 0 -1 -1 0 0 0 0 0 0 0 0 0 0 0 0 0 0 -33 0 0 0 0 0 0 0 0 0 0 -24 0 0 0 0 0 0 0 0 0 0 0 0 0 0 0 0 0 0 0 0 0 0 0 0 0 0 0 0 0 0 0 0 0 -45 -2 0 0 0 0 0 0 0 -14 1 1 0 0 0 0 0 0 0 0 0 26 0 0 0 0 -2 0 0 0 2 0 -1 0 0 0 0 0 0 0 0 -2 0 0 0 0 0 0 -1 0 0 0 2 0 0 0 0 0 -2 0 0 0 0 0 0 0 0 0 0 0 0 0 -1 0 0 -24 0 0 0 -2 0 0 0 0 0 1 0 -2 0 0 0 0 0 0 0 0 0 0 0 0 0 0 0 0 0 0 0 0 0 0 0 0 0 0 0 0 0 0 0 0 0 0 0 0 0 0 0 0 0 0 0 0 0 0 0 0 0 0 0 0 0 0 0 0 0 0 0 0 0 0 0 0 0 0 0 0 0 0 0 0 0 0 0 0 0 0 0 0 0 0 0 0 0 0 0 0 0 0 0 0 0 0 0 0 0 0 
0 6 0 -30 -8 0 0 6 0 -22 0 0 -2 0 -6 0 6 0 -1 0 0 -2 0 0 0 0 0 -2 0 0 0 0 0 -6 0 0 -22 0 0 0 0 0 0 0 -1 -1 0 0 0 0 0 0 0 0 0 0 -2 0 0 0 -33 0 0 0 0 0 0 -6 0 0 0 -24 0 -97 0 0 0 0 0 0 0 0 0 0 0 0 0 0 0 0 0 0 0 0 0 0 0 0 0 0 0 0 0 0 0 0 0 0 0 -2 0 0 0 0 0 1 0 0 0 -2 2 0 0 0 0 0 26 0 0 0 0 -2 0 0 0 2 0 -1 0 0 6 0 0 0 0 0 0 0 0 0 0 0 0 -1 0 0 0 0 0 0 0 0 0 -2 0 0 0 0 0 0 0 0 0 0 0 0 0 0 -2 0 -24 0 0 0 -2 0 0 -6 0 0 1 0 0 0 0 0 0 0 0 0 0 0 0 0 0 0 0 0 0 0 0 0 0 0 0 0 0 0 0 0 0 0 0 0 0 0 0 0 0 0 0 0 0 0 0 0 0 0 0 0 0 0 0 0 0 0 0 0 0 0 0 0 0 0 0 0 0 0 0 0 0 0 0 0 0 0 0 0 0 0 0 0 0 0 0 0 0 0 0 0 0 0 0 0 0 0 0 0 0 0 0 
-14 -34 0 -2 -2 -13 0 -34 -1 0 0 0 -2 0 -6 0 -57 0 -4 0 2 -18 0 0 -2 0 0 -18 0 0 0 0 0 0 0 0 0 0 0 -1 0 0 0 0 0 0 0 0 0 0 0 0 0 0 0 0 0 19 0 0 0 -13 0 0 0 0 0 -6 -1 0 0 0 0 0 0 0 0 0 0 0 0 0 0 0 0 0 0 0 0 0 0 0 0 0 0 0 0 0 0 0 0 0 0 -2 0 0 0 4 0 0 0 0 0 0 0 0 0 0 0 0 0 -4 0 0 0 0 0 -25 0 0 0 0 0 0 0 0 0 0 0 0 6 0 4 0 0 0 0 0 0 0 0 0 0 0 0 0 0 0 0 0 0 0 4 -18 19 0 0 0 0 0 0 0 0 0 0 2 0 0 0 0 0 0 0 0 0 0 0 -6 0 0 0 0 0 0 -4 0 0 0 0 0 0 0 0 0 0 0 0 0 0 0 0 0 0 0 0 0 0 0 0 0 0 0 0 0 0 0 0 0 0 0 0 0 0 0 0 0 0 0 0 0 0 0 0 0 0 0 0 0 0 0 0 0 0 0 0 0 0 0 0 0 0 0 0 0 0 0 0 0 0 0 0 0 0 0 0 0 0 0 0 0 0 0 0 0 0 0 0 0 0 0 0 
#OUTPUT END
Model has been successfully processed
